src/problems/pwi2-bank.txt
# input state
   1,  1,  1,  0,  0,  0,  0,  0,  0,  0,  0,  0,  0,  0,  0,  0,  0,  0,  0

# task conditions

   1,  1,  1,  0,  0,  0,  0,  0,  0,  0,  0,  0,  0,  0,  0,  0,  0,  0,  0
  -1, -1, -1,  1,  0,  0,  0,  0,  0,  0,  0,  0,  0,  0,  0,  0,  0,  0,  0
  -1, -1, -1, -1,  1,  0,  0,  0,  0,  0,  0,  0,  0,  0,  0,  0,  0,  0,  0
   1,  1,  1,  1,  0,  0,  0,  0,  0,  0,  0,  0,  0,  0,  0,  0,  0,  0,  0
  -1, -1, -1,  1, -1,  1,  1,  0,  0,  0,  0,  0,  0,  0,  0,  0,  0,  0,  0
  -1, -1, -1, -1, -1, -1, -1,  1,  0,  0,  0,  0,  0,  0,  0,  0,  0,  0,  0
  -1, -1, -1,  1, -1, -1, -1, -1, -1,  0,  0,  0,  0,  0,  0,  0,  0,  0,  0
  -1, -1, -1, -1, -1, -1, -1, -1, -1,  1,  0,  0,  0,  0,  0,  0,  0,  0,  0
  -1, -1, -1, -1, -1, -1, -1, -1,  1, -1, -1,  0,  0,  0,  0,  0,  0,  0,  0
  -1, -1, -1, -1, -1, -1, -1, -1,  1, -1, -1,  1,  0,  0,  0,  0,  0,  0,  0
  -1, -1, -1, -1, -1, -1, -1, -1,  1, -1, -1,  1,  0,  0,  0,  0,  0,  0,  0
  -1, -1, -1, -1, -1, -1, -1, -1,  1, -1, -1,  1,  0,  0,  0,  0,  0,  0,  0
  -1, -1, -1, -1, -1, -1, -1, -1,  1, -1, -1, -1, -1, -1, -1,  1,  0,  0,  0
  -1, -1, -1, -1, -1, -1, -1, -1,  1, -1, -1, -1, -1, -1, -1,  1,  0,  0,  0
  -1, -1, -1, -1, -1, -1, -1, -1,  1, -1, -1, -1,  1,  1,  1, -1,  1,  1,  0

# task effects

  -1, -1, -1,  1, -1, -1, -1, -1, -1, -1, -1, -1, -1, -1, -1, -1, -1, -1, -1
  -1, -1, -1, -1,  1, -1, -1, -1, -1, -1, -1, -1, -1, -1, -1, -1, -1, -1, -1
  -1, -1, -1, -1, -1,  1,  1, -1, -1, -1, -1, -1, -1, -1, -1, -1, -1, -1, -1
  -1, -1, -1, -1, -1,  1,  1, -1, -1, -1, -1, -1, -1, -1, -1, -1, -1, -1, -1
  -1, -1, -1, -1, -1, -1, -1,  1, -1, -1, -1, -1, -1, -1, -1, -1, -1, -1, -1
  -1, -1, -1, -1, -1, -1, -1, -1,  1, -1, -1, -1, -1, -1, -1, -1, -1, -1, -1
  -1, -1, -1, -1, -1, -1, -1, -1, -1,  1, -1, -1, -1, -1, -1, -1, -1, -1, -1
  -1, -1, -1, -1, -1, -1, -1, -1, -1,  1,  1, -1, -1, -1, -1, -1, -1, -1, -1
  -1, -1, -1, -1, -1, -1, -1, -1, -1, -1, -1,  1, -1, -1, -1, -1, -1, -1, -1
  -1, -1, -1, -1, -1, -1, -1, -1, -1, -1, -1, -1,  1, -1, -1, -1, -1, -1, -1
  -1, -1, -1, -1, -1, -1, -1, -1, -1, -1, -1, -1, -1,  1,  1, -1, -1, -1, -1
  -1, -1, -1, -1, -1, -1, -1, -1, -1, -1, -1, -1, -1, -1, -1,  1, -1, -1, -1
  -1, -1, -1, -1, -1, -1, -1, -1, -1, -1, -1, -1, -1, -1, -1, -1,  1, -1, -1
  -1, -1, -1, -1, -1, -1, -1, -1, -1, -1, -1, -1, -1, -1, -1, -1, -1,  1, -1
  -1, -1, -1, -1, -1, -1, -1, -1, -1, -1, -1, -1, -1, -1, -1, -1, -1, -1,  1

# goal state

  -1, -1, -1, -1, -1, -1, -1, -1, -1, -1, -1, -1, -1, -1, -1, -1, -1, -1,  1

# %what is the maximum execution number of a task (0 - unlimited)
# input_tasks_executions = [
#  1, % 
#  1, %  
#  1, % 
#  1, % 
#  1, % 
#  1, % 
#  1, % 
#  1, % 
#  1, % 
#  1, % 
#  1,
#  1,
#  1,
#  1, % 
#  1, %
#   ]; % end